
Gurobi 11.0.0 (win64) logging started Fri May  3 16:47:02 2024

Set parameter LogFile to value "./Results/StripPacking-CutHeurRuns/Logs/SBL-110-StripPacking-10.log"
Set parameter TimeLimit to value 10800
Set parameter Cuts to value 1
Set parameter Presolve to value 1
Set parameter Heuristics to value 0
Set parameter LPWarmStart to value 2
Gurobi Optimizer version 11.0.0 build v11.0.0rc2 (win64 - Windows 10.0 (19045.2))

CPU model: Intel(R) Core(TM) i9-10980XE CPU @ 3.00GHz, instruction set [SSE2|AVX|AVX2|AVX512]
Thread count: 18 physical cores, 36 logical processors, using up to 18 threads

Optimize a model with 550 rows, 111 columns and 1820 nonzeros
Model fingerprint: 0x696f253e
Variable types: 21 continuous, 90 integer (90 binary)
Coefficient statistics:
  Matrix range     [1e+00, 1e+04]
  Objective range  [1e+00, 1e+00]
  Bounds range     [1e+00, 1e+04]
  RHS range        [2e+00, 1e+04]

User MIP start produced solution with objective 50 (0.00s)
Loaded user MIP start with objective 50

Presolve removed 90 rows and 0 columns
Presolve time: 0.00s
Presolved: 460 rows, 111 columns, 1550 nonzeros
Variable types: 21 continuous, 90 integer (90 binary)

Root relaxation: objective 3.500000e+01, 48 iterations, 0.00 seconds (0.00 work units)

    Nodes    |    Current Node    |     Objective Bounds      |     Work
 Expl Unexpl |  Obj  Depth IntInf | Incumbent    BestBd   Gap | It/Node Time

     0     0   35.00000    0    2   50.00000   35.00000  30.0%     -    0s
     0     0   35.00000    0    8   50.00000   35.00000  30.0%     -    0s
     0     0   35.00000    0    6   50.00000   35.00000  30.0%     -    0s
     0     0   35.00000    0    7   50.00000   35.00000  30.0%     -    0s
     0     0   35.00000    0    6   50.00000   35.00000  30.0%     -    0s
     0     0   35.00000    0    4   50.00000   35.00000  30.0%     -    0s
     0     0   35.00000    0    6   50.00000   35.00000  30.0%     -    0s
H    0     0                      48.0000000   35.00000  27.1%     -    0s
     0     0   35.00000    0    9   48.00000   35.00000  27.1%     -    0s
     0     0   35.00000    0   11   48.00000   35.00000  27.1%     -    0s
H    0     0                      46.0000000   35.00000  23.9%     -    0s
     0     0   35.00000    0    6   46.00000   35.00000  23.9%     -    0s
     0     0   35.00000    0    6   46.00000   35.00000  23.9%     -    0s
     0     2   35.00000    0    6   46.00000   35.00000  23.9%     -    0s
*  440   487              24      41.0000000   35.00000  14.6%   8.3    0s
* 1508  1011              36      39.0000000   35.00000  10.3%   7.5    0s
* 8903   908              28      39.0000000   35.64078  8.61%   6.3    0s

Cutting planes:
  Learned: 771
  Gomory: 3
  Cover: 4
  Implied bound: 2
  MIR: 41
  StrongCG: 3
  RLT: 9
  Relax-and-lift: 3

Explored 18720 nodes (93255 simplex iterations) in 0.67 seconds (0.30 work units)
Thread count was 18 (of 36 available processors)

Solution count 6: 39 39 41 ... 50

Optimal solution found (tolerance 1.00e-04)
Best objective 3.899999999600e+01, best bound 3.899999999600e+01, gap 0.0000%
